%chk=IP4_1.chk
#p opt freq apfd/6-311+g(2d,p) scrf=(solvent=chloroform)

Structure: IP4_1. Calculation: opt freq apfd/6-311+g(2d,p) 

0 1
C  -1.176499 0.134658 0.092263
C -0.522534 1.457197  -0.160401
C  0.969635 1.155448 0.045000
C  1.028715  -0.148348 0.871576
C  -0.335210  -0.739135 0.654543
O  1.580087 0.960442  -1.236570
C  1.275439 0.116615 2.352412
H -0.737293 1.816289  -1.171341
H  1.794016  -0.829264 0.482334
H -0.886802 2.184756 0.572392
H  1.486721 1.994396 0.522426
H -2.212348  -0.069713  -0.140839
H -0.599707  -1.749635 0.935817
H 2.493736 0.667240  -1.082871
H  2.258975 0.575178 2.499956
H  1.251044  -0.816889 2.925344
H  0.523712 0.791116 2.777980

